max:+ d0 + d1 + d2 + d3 + d4 ;

 /* server 0*/
f0s0u0 <= x0s0 + 1600000.0 u0;
f1s0u0 <= x1s0 + 1600000.0 u0;
f2s0u0 <= x2s0 + 1600000.0 u0;
f3s0u0 <= x3s0 + 1600000.0 u0;
f4s0u0 <= x4s0 + 1600000.0 u0;
+ f1s0u0+ f2s0u0+ f3s0u0+ f4s0u0<= 0 + 10000000.0 u0;
0+ f0s0u0+ f1s0u0+ f2s0u0+ f3s0u0+ f4s0u0= a0u0;
b0t0 >= 10000000.0 t0 - 10000.0;
b0t0 >= 0;
b0t0 = a0u0;
d0 = t0 - u0;
d0 >= 0;

 /* server 1*/
f0s1u1 <= x0s1 + 1600000.0 u1;
f1s1u1 <= x1s1 + 1600000.0 u1;
f2s1u1 <= x2s1 + 1600000.0 u1;
f3s1u1 <= x3s1 + 1600000.0 u1;
f4s1u1 <= x4s1 + 1600000.0 u1;
+ f0s1u1+ f2s1u1+ f3s1u1+ f4s1u1<= 0 + 10000000.0 u1;
0+ f0s1u1+ f1s1u1+ f2s1u1+ f3s1u1+ f4s1u1= a1u1;
b1t1 >= 10000000.0 t1 - 10000.0;
b1t1 >= 0;
b1t1 = a1u1;
d1 = t1 - u1;
d1 >= 0;

 /* server 2*/
f0s2u2 <= x0s2 + 1600000.0 u2;
f1s2u2 <= x1s2 + 1600000.0 u2;
f2s2u2 <= x2s2 + 1600000.0 u2;
f3s2u2 <= x3s2 + 1600000.0 u2;
f4s2u2 <= x4s2 + 1600000.0 u2;
+ f0s2u2+ f1s2u2+ f3s2u2+ f4s2u2<= 0 + 10000000.0 u2;
0+ f0s2u2+ f1s2u2+ f2s2u2+ f3s2u2+ f4s2u2= a2u2;
b2t2 >= 10000000.0 t2 - 10000.0;
b2t2 >= 0;
b2t2 = a2u2;
d2 = t2 - u2;
d2 >= 0;

 /* server 3*/
f0s3u3 <= x0s3 + 1600000.0 u3;
f1s3u3 <= x1s3 + 1600000.0 u3;
f2s3u3 <= x2s3 + 1600000.0 u3;
f3s3u3 <= x3s3 + 1600000.0 u3;
f4s3u3 <= x4s3 + 1600000.0 u3;
+ f0s3u3+ f1s3u3+ f2s3u3+ f4s3u3<= 0 + 10000000.0 u3;
0+ f0s3u3+ f1s3u3+ f2s3u3+ f3s3u3+ f4s3u3= a3u3;
b3t3 >= 10000000.0 t3 - 10000.0;
b3t3 >= 0;
b3t3 = a3u3;
d3 = t3 - u3;
d3 >= 0;

 /* server 4*/
f0s4u4 <= x0s4 + 1600000.0 u4;
f1s4u4 <= x1s4 + 1600000.0 u4;
f2s4u4 <= x2s4 + 1600000.0 u4;
f3s4u4 <= x3s4 + 1600000.0 u4;
f4s4u4 <= x4s4 + 1600000.0 u4;
+ f0s4u4+ f1s4u4+ f2s4u4+ f3s4u4<= 0 + 10000000.0 u4;
0+ f0s4u4+ f1s4u4+ f2s4u4+ f3s4u4+ f4s4u4= a4u4;
b4t4 >= 10000000.0 t4 - 10000.0;
b4t4 >= 0;
b4t4 = a4u4;
d4 = t4 - u4;
d4 >= 0;

 /* sigma variables*/
x0s0 = 1000.0;
x0s1 <= x0s0 + 1600000.0 d0;
x0s2 <= x0s1 + 1600000.0 d1;
x0s3 <= x0s2 + 1600000.0 d2;
x0s4 <= x0s3 + 1600000.0 d3;
x1s1 = 1000.0;
x1s2 <= x1s1 + 1600000.0 d1;
x1s3 <= x1s2 + 1600000.0 d2;
x1s4 <= x1s3 + 1600000.0 d3;
x1s0 <= x1s4 + 1600000.0 d4;
x2s2 = 1000.0;
x2s3 <= x2s2 + 1600000.0 d2;
x2s4 <= x2s3 + 1600000.0 d3;
x2s0 <= x2s4 + 1600000.0 d4;
x2s1 <= x2s0 + 1600000.0 d0;
x3s3 = 1000.0;
x3s4 <= x3s3 + 1600000.0 d3;
x3s0 <= x3s4 + 1600000.0 d4;
x3s1 <= x3s0 + 1600000.0 d0;
x3s2 <= x3s1 + 1600000.0 d1;
x4s4 = 1000.0;
x4s0 <= x4s4 + 1600000.0 d4;
x4s1 <= x4s0 + 1600000.0 d0;
x4s2 <= x4s1 + 1600000.0 d1;
x4s3 <= x4s2 + 1600000.0 d2;
